12 66
1 2 3
1 3 1
1 4 5
1 5 3
1 6 4
1 7 4
1 8 3
1 9 4
1 10 3
1 11 5
1 12 3
2 3 2
2 4 3
2 5 2
2 6 3
2 7 1
2 8 5
2 9 3
2 10 2
2 11 4
2 12 4
3 4 1
3 5 1
3 6 3
3 7 2
3 8 5
3 9 4
3 10 3
3 11 1
3 12 4
4 5 5
4 6 1
4 7 1
4 8 3
4 9 2
4 10 5
4 11 4
4 12 3
5 6 3
5 7 2
5 8 3
5 9 3
5 10 5
5 11 2
5 12 5
6 7 1
6 8 5
6 9 4
6 10 1
6 11 2
6 12 1
7 8 3
7 9 5
7 10 2
7 11 3
7 12 1
8 9 3
8 10 4
8 11 4
8 12 2
9 10 1
9 11 4
9 12 5
10 11 3
10 12 2
11 12 1
